32      4       
19      16      12      17      
0       0       0       0       0       1       2       
9       5       0       0       6       1       3       
4       7       0       0       4       2       4       8       
5       5       0       5       0       1       5       
6       18      1       0       0       2       6       7       
4       5       0       3       0       2       9       12      
5       8       0       0       17      1       10      
10      0       1       1       0       1       9       
4       0       5       0       4       2       11      13      
3       8       0       0       4       2       11      13      
4       0       16      1       0       3       14      15      17      
7       0       11      0       1       3       14      15      17      
5       0       0       12      7       1       14      
2       0       4       6       0       3       16      18      24      
5       0       0       1       15      2       16      24      
3       0       1       4       0       3       19      20      22      
10      0       5       0       1       3       19      20      23      
5       0       0       7       10      3       20      22      23      
10      0       9       0       9       1       21      
5       5       0       6       0       1       25      
8       0       3       0       8       1       25      
5       3       0       2       0       1       25      
5       9       15      0       0       1       25      
3       15      0       12      0       1       25      
1       0       1       2       0       2       26      27      
1       0       0       8       6       2       28      29      
4       2       0       0       6       1       28      
2       9       12      0       0       2       30      31      
9       9       0       2       0       1       30      
6       6       1       0       0       1       32      
8       0       11      0       4       1       32      
0       0       0       0       0       0       
